c A SAT instance generated from a 3-CNF formula that had 12 clauses and 6 variables
p cnf 6 12
-1 4 2 0
4 -3 -6 0
3 -1 6 0
-1 -4 -3 0
4 -6 5 0
1 -6 -3 0
2 6 5 0
-3 5 4 0
-6 -1 -4 0
-1 -4 -2 0
-4 -5 -3 0
-6 -5 2 0
